Route #1: 1 35 1 
Route #2: 1 11 32 11 39 12 54 8 1 
Route #3: 1 33 19 51 33 26 33 13 1 
Route #4: 1 31 28 16 58 14 55 53 1 
Route #5: 1 52 45 4 17 2 23 2 1 
Route #6: 1 3 31 22 48 60 37 48 49 1 
Route #7: 1 31 6 16 38 21 16 1 
Route #8: 1 4 50 24 57 42 43 44 2 1 
Route #9: 1 18 41 33 10 40 11 59 27 1 
Route #10: 1 7 34 2 29 31 30 46 5 1 
Route #11: 1 47 55 20 15 54 36 9 54 1 
Cost 928.0
